# Solution for model r3_t18_m0_0
# Finished Task: 17 / 18
# Makespan: 664.0, Total Distance: 938.0, Total Time: 0.9061
# R O S F
0 0 16 0.0 0.0
1 1 19 0.0 0.0
2 2 12 0.0 0.0
3 1 6 579.0 612.0
4 0 18 372.0 400.0
5 1 11 386.0 425.0
6 1 -1 612.0 632.0
7 -1 -1 -1.0 -1.0
8 2 14 265.0 295.0
9 0 17 502.0 532.0
10 1 3 519.0 548.0
11 1 10 456.0 485.0
12 2 8 86.0 119.0
13 2 20 466.0 504.0
14 2 13 357.0 395.0
15 0 4 291.0 325.0
16 0 15 164.0 200.0
17 0 -1 586.0 609.0
18 0 9 432.0 453.0
19 1 5 184.0 223.0
20 2 -1 634.0 664.0
